results_rootrelaxation/bin018_060_048.srr.sol
solution status: optimal solution found
objective value:                                    0
_var2758_                           0.027259684903959 	(obj:0)
_var2771_                           0.281762833405608 	(obj:0)
_var2781_                          0.0611354344079436 	(obj:0)
_var2783_                           0.230166203865132 	(obj:0)
_var2787_                          0.0227667322678866 	(obj:0)
_var2789_                           0.114113397063358 	(obj:0)
_var2798_                           0.066006391721101 	(obj:0)
_var2807_                           0.020718474814832 	(obj:0)
_var2809_                          0.0405537866924032 	(obj:0)
_var2813_                           0.211002303306751 	(obj:0)
_var2815_                           0.208427972205274 	(obj:0)
_var2823_                          0.0826423388177654 	(obj:0)
_var2824_                           0.255362970179939 	(obj:0)
_var2829_                           0.300928508944256 	(obj:0)
_var2833_                           0.172282256071148 	(obj:0)
_var2841_                          0.0728428244153539 	(obj:0)
_var2851_                           0.100356453725555 	(obj:0)
_var2859_                            0.38788051501675 	(obj:0)
_var2863_                          0.0957472869164416 	(obj:0)
_var2875_                          0.0297629633170312 	(obj:0)
_var2877_                         0.00285926368156092 	(obj:0)
_var2879_                           0.171576978660117 	(obj:0)
_var2880_                           0.027031330468813 	(obj:0)
_var2883_                           0.145671179103955 	(obj:0)
_var2889_                           0.100716131894003 	(obj:0)
_var2890_                           0.187666984679354 	(obj:0)
_var2901_                           0.252211355902097 	(obj:0)
_var2907_                          0.0495558611242895 	(obj:0)
_var2908_                           0.203262754633465 	(obj:0)
_var2909_                          0.0913406324493531 	(obj:0)
_var2912_                           0.104971616915715 	(obj:0)
_var2916_                           0.257796636153921 	(obj:0)
_var2918_                           0.189217373352508 	(obj:0)
_var2922_                          0.0728929182741744 	(obj:0)
_var2928_                           0.123307701137907 	(obj:0)
_var2932_                           0.124899034925291 	(obj:0)
_var2938_                           0.464566793978584 	(obj:0)
_var2945_                          0.0275145768401391 	(obj:0)
_var2946_                           0.189850566897854 	(obj:0)
_var2950_                           0.200706298148521 	(obj:0)
_var2958_                         0.00488393162325814 	(obj:0)
_var2960_                           0.109245793331443 	(obj:0)
_var2962_                           0.258710220296575 	(obj:0)
_var2965_                          0.0715606245456946 	(obj:0)
_var2972_                           0.405880400666878 	(obj:0)
_var2973_                          0.0323731293490042 	(obj:0)
_var2974_                           0.153043636115809 	(obj:0)
_var2976_                          0.0367184844090371 	(obj:0)
_var2979_                          0.0885168209755627 	(obj:0)
_var2980_                           0.110822246168644 	(obj:0)
_var2983_                           0.385594966685544 	(obj:0)
_var2984_                           0.117399217051418 	(obj:0)
_var2985_                          0.0329151828887078 	(obj:0)
_var2988_                           0.267373442147949 	(obj:0)
_var2992_                          0.0878208180064868 	(obj:0)
_var2995_                          0.0319400788880374 	(obj:0)
_var2999_                          0.0435584290543443 	(obj:0)
_var3001_                          0.0237267566371546 	(obj:0)
_var3004_                           0.291171040029183 	(obj:0)
_var3005_                           0.333747841383305 	(obj:0)
_var3007_                           0.190417498697267 	(obj:0)
_var3009_                           0.115912626972747 	(obj:0)
_var3010_                           0.123879996819348 	(obj:0)
_var3018_                           0.120664352006642 	(obj:0)
_var3021_                           0.101816610481011 	(obj:0)
_var3029_                           0.098607056979223 	(obj:0)
_var3032_                          0.0475080763404939 	(obj:0)
_var3034_                          0.0731256980652496 	(obj:0)
_var3035_                         0.00462211755189884 	(obj:0)
_var3036_                          0.0924496156321019 	(obj:0)
_var3041_                           0.152947876072316 	(obj:0)
_var3042_                           0.213337419578611 	(obj:0)
_var3045_                           0.334893059163821 	(obj:0)
_var3047_                         0.00566022085079536 	(obj:0)
_var3048_                           0.212092038590421 	(obj:0)
_var3050_                           0.134678459770666 	(obj:0)
_var3052_                          0.0433497976110337 	(obj:0)
_var3054_                          0.0233389884162954 	(obj:0)
_var3055_                          0.0465157908706908 	(obj:0)
_var3058_                          0.0200068244622303 	(obj:0)
_var3061_                           0.104105326124146 	(obj:0)
_var3063_                           0.242880808742063 	(obj:0)
_var3066_                           0.324490782449125 	(obj:0)
_var3067_                          0.0470194240388411 	(obj:0)
_var3071_                           0.143860651326505 	(obj:0)
_var3078_                          0.0871335325742466 	(obj:0)
_var3079_                          0.0339505803017548 	(obj:0)
_var3080_                          0.0394670530890822 	(obj:0)
_var3081_                           0.173895016969985 	(obj:0)
_var3082_                          0.0168664165027518 	(obj:0)
_var3083_                           0.177885974685235 	(obj:0)
_var3084_                          0.0490824049453864 	(obj:0)
_var3087_                           0.156087580869769 	(obj:0)
_var3090_                           0.146676240594898 	(obj:0)
_var3092_                          0.0848899554904205 	(obj:0)
_var3093_                           0.110150974843382 	(obj:0)
_var3094_                           0.030763613622151 	(obj:0)
_var3095_                           0.105291034239287 	(obj:0)
_var3100_                            0.15576445268527 	(obj:0)
_var3101_                           0.102147175436735 	(obj:0)
_var3104_                          0.0579134627693069 	(obj:0)
_var3105_                           0.168652924955275 	(obj:0)
_var3106_                           0.132190904892536 	(obj:0)
_var3113_                          0.0307892817835746 	(obj:0)
_var3115_                           0.149346553607835 	(obj:0)
_var3116_                           0.135505107142533 	(obj:0)
_var3117_                          0.0899523745917765 	(obj:0)
_var3118_                          0.0358920457045796 	(obj:0)
_var3119_                           0.066692931609888 	(obj:0)
_var3121_                          0.0373778375616759 	(obj:0)
_var3126_                           0.218209627034155 	(obj:0)
_var3127_                           0.242141328431919 	(obj:0)
_var3128_                           0.135854945825027 	(obj:0)
_var3133_                           0.109310695934521 	(obj:0)
_var3135_                          0.0210148389861359 	(obj:0)
_var3136_                          0.0100895449246397 	(obj:0)
_var3137_                           0.192883803644815 	(obj:0)
_var3140_                          0.0597480470001988 	(obj:0)
_var3143_                           0.100026009209061 	(obj:0)
_var3146_                           0.142853135319347 	(obj:0)
_var3148_                           0.117822275727803 	(obj:0)
_var3149_                          0.0468446498407484 	(obj:0)
_var3150_                          0.0474623907218158 	(obj:0)
_var3151_                          0.0142479956389511 	(obj:0)
_var3152_                          0.0535155087345688 	(obj:0)
_var3154_                          0.0317933975057068 	(obj:0)
_var3155_                         0.00432013906379901 	(obj:0)
_var3156_                          0.0480755968264903 	(obj:0)
_var3157_                          0.0380349491356932 	(obj:0)
_var3158_                           0.232739578478985 	(obj:0)
_var3160_                          0.0798064869485946 	(obj:0)
_var3161_                         0.00629835130422235 	(obj:0)
_var3162_                          0.0192663654606824 	(obj:0)
_var3165_                           0.051541627490734 	(obj:0)
_var3166_                          0.0555315042025263 	(obj:0)
_var3167_                          0.0588554225884115 	(obj:0)
_var3168_                          0.0185733649490323 	(obj:0)
_var3169_                          0.0178239624535407 	(obj:0)
_var3170_                           0.128595520482637 	(obj:0)
_var3171_                         0.00705762368889137 	(obj:0)
_var3172_                           0.137695203776366 	(obj:0)
_var3176_                          0.0470194240388411 	(obj:0)
_var3177_                          0.0484296744627751 	(obj:0)
_var3178_                           0.123299769985981 	(obj:0)
_var3179_                          0.0865120192803963 	(obj:0)
_var3181_                          0.0210934202428982 	(obj:0)
_var3182_                          0.0298605840663071 	(obj:0)
_var3184_                          0.0142634985373299 	(obj:0)
_var3190_                         0.00236085314967865 	(obj:0)
_var3192_                          0.0194628973948629 	(obj:0)
_var3193_                          0.0825333813156967 	(obj:0)
_var3195_                           0.028245655578187 	(obj:0)
