results_rootrelaxation/bin018_060_048.srr.log
SCIP version 8.0.3.5 [precision: 8 byte] [memory: block] [mode: optimized] [LP solver: Soplex 6.0.1.3] [GitHash: 438792519e]
Copyright (c) 2002-2023 Zuse Institute Berlin (ZIB)

External libraries: 
  Readline 8.1         GNU library for command line editing (gnu.org/s/readline)
  Soplex 6.0.1.3       Linear Programming Solver developed at Zuse Institute Berlin (soplex.zib.de) [GitHash: 713be0fe]
  CppAD 20180000.0     Algorithmic Differentiation of C++ algorithms developed by B. Bell (github.com/coin-or/CppAD)
  ZLIB 1.2.11          General purpose compression library by J. Gailly and M. Adler (zlib.net)
  bliss 0.77           Computing Graph Automorphism Groups by T. Junttila and P. Kaski (www.tcs.hut.fi/Software/bliss/)

user parameter file <scip.set> not found - using default parameters

srr/relaxation = TRUE

read problem <instances/bin018_060_048.srr>
============

Original problem: 
original problem has 0 variables (0 bin, 0 int, 0 impl, 0 cont) and 170 constraints

presolving:
presolving (1 rounds: 1 fast, 1 medium, 1 exhaustive):
 0 deleted vars, 0 deleted constraints, 0 added constraints, 0 tightened bounds, 0 added holes, 0 changed sides, 0 changed coefficients
 0 implications, 0 cliques
presolved problem has 0 variables (0 bin, 0 int, 0 impl, 0 cont) and 170 constraints
    170 constraints of type <linear>
Presolving Time: 0.00

 time | node  | left  |LP iter|LP it/n|mem/heur|mdpt |vars |cons |rows |cuts |sepa|confs|strbr|  dualbound   | primalbound  |  gap   | compl. 
  0.0s|     1 |     0 |     1 |     - |   922k |   0 |   1 | 170 | 170 |   0 |  0 |   0 |   0 |      --      |      --      |    Inf | unknown
  0.2s|     1 |     0 |  1152 |     - |  7154k |   0 |1615 | 170 | 170 |   0 |  0 |   0 |   0 |      --      |      --      |    Inf | unknown
r 0.9s|     1 |     0 |  7184 |     - |simplero|   0 |2737 | 170 | 170 |   0 |  0 |   0 |   0 |      --      | 4.794313e+01 |    Inf | unknown
r 0.9s|     1 |     0 |  7267 |     - |simplero|   0 |2754 | 170 | 170 |   0 |  0 |   0 |   0 |      --      | 4.644536e+01 |    Inf | unknown
r 0.9s|     1 |     0 |  7383 |     - |simplero|   0 |2771 | 170 | 170 |   0 |  0 |   0 |   0 |      --      | 4.441900e+01 |    Inf | unknown
r 0.9s|     1 |     0 |  7543 |     - |simplero|   0 |2788 | 170 | 170 |   0 |  0 |   0 |   0 |      --      | 4.170049e+01 |    Inf | unknown
r 1.0s|     1 |     0 |  7832 |     - |simplero|   0 |2805 | 170 | 170 |   0 |  0 |   0 |   0 |      --      | 3.754687e+01 |    Inf | unknown
r 1.0s|     1 |     0 |  7912 |     - |simplero|   0 |2822 | 170 | 170 |   0 |  0 |   0 |   0 |      --      | 3.463217e+01 |    Inf | unknown
r 1.0s|     1 |     0 |  8006 |     - |simplero|   0 |2822 | 170 | 170 |   0 |  0 |   0 |   0 |      --      | 3.373853e+01 |    Inf | unknown
r 1.0s|     1 |     0 |  8165 |     - |simplero|   0 |2839 | 170 | 170 |   0 |  0 |   0 |   0 |      --      | 3.129809e+01 |    Inf | unknown
r 1.0s|     1 |     0 |  8176 |     - |simplero|   0 |2839 | 170 | 170 |   0 |  0 |   0 |   0 |      --      | 3.128206e+01 |    Inf | unknown
r 1.0s|     1 |     0 |  8331 |     - |simplero|   0 |2856 | 170 | 170 |   0 |  0 |   0 |   0 |      --      | 2.813666e+01 |    Inf | unknown
r 1.0s|     1 |     0 |  8359 |     - |simplero|   0 |2856 | 170 | 170 |   0 |  0 |   0 |   0 |      --      | 2.796393e+01 |    Inf | unknown
r 1.0s|     1 |     0 |  8364 |     - |simplero|   0 |2856 | 170 | 170 |   0 |  0 |   0 |   0 |      --      | 2.796364e+01 |    Inf | unknown
r 1.0s|     1 |     0 |  8501 |     - |simplero|   0 |2873 | 170 | 170 |   0 |  0 |   0 |   0 |      --      | 2.542716e+01 |    Inf | unknown
 time | node  | left  |LP iter|LP it/n|mem/heur|mdpt |vars |cons |rows |cuts |sepa|confs|strbr|  dualbound   | primalbound  |  gap   | compl. 
r 1.1s|     1 |     0 |  8600 |     - |simplero|   0 |2873 | 170 | 170 |   0 |  0 |   0 |   0 |      --      | 2.463352e+01 |    Inf | unknown
r 1.1s|     1 |     0 |  8642 |     - |simplero|   0 |2873 | 170 | 170 |   0 |  0 |   0 |   0 |      --      | 2.450851e+01 |    Inf | unknown
r 1.1s|     1 |     0 |  8796 |     - |simplero|   0 |2890 | 170 | 170 |   0 |  0 |   0 |   0 |      --      | 2.204181e+01 |    Inf | unknown
r 1.1s|     1 |     0 |  8831 |     - |simplero|   0 |2890 | 170 | 170 |   0 |  0 |   0 |   0 |      --      | 2.191159e+01 |    Inf | unknown
r 1.1s|     1 |     0 |  8834 |     - |simplero|   0 |2890 | 170 | 170 |   0 |  0 |   0 |   0 |      --      | 2.190862e+01 |    Inf | unknown
r 1.1s|     1 |     0 |  8836 |     - |simplero|   0 |2890 | 170 | 170 |   0 |  0 |   0 |   0 |      --      | 2.190837e+01 |    Inf | unknown
r 1.1s|     1 |     0 |  8984 |     - |simplero|   0 |2907 | 170 | 170 |   0 |  0 |   0 |   0 |      --      | 1.966642e+01 |    Inf | unknown
r 1.1s|     1 |     0 |  9044 |     - |simplero|   0 |2907 | 170 | 170 |   0 |  0 |   0 |   0 |      --      | 1.929548e+01 |    Inf | unknown
r 1.1s|     1 |     0 |  9078 |     - |simplero|   0 |2907 | 170 | 170 |   0 |  0 |   0 |   0 |      --      | 1.921241e+01 |    Inf | unknown
r 1.1s|     1 |     0 |  9091 |     - |simplero|   0 |2907 | 170 | 170 |   0 |  0 |   0 |   0 |      --      | 1.920432e+01 |    Inf | unknown
r 1.1s|     1 |     0 |  9092 |     - |simplero|   0 |2907 | 170 | 170 |   0 |  0 |   0 |   0 |      --      | 1.920427e+01 |    Inf | unknown
r 1.1s|     1 |     0 |  9174 |     - |simplero|   0 |2924 | 170 | 170 |   0 |  0 |   0 |   0 |      --      | 1.792240e+01 |    Inf | unknown
r 1.1s|     1 |     0 |  9278 |     - |simplero|   0 |2924 | 170 | 170 |   0 |  0 |   0 |   0 |      --      | 1.673627e+01 |    Inf | unknown
r 1.2s|     1 |     0 |  9320 |     - |simplero|   0 |2924 | 170 | 170 |   0 |  0 |   0 |   0 |      --      | 1.654498e+01 |    Inf | unknown
r 1.2s|     1 |     0 |  9324 |     - |simplero|   0 |2924 | 170 | 170 |   0 |  0 |   0 |   0 |      --      | 1.653953e+01 |    Inf | unknown
 time | node  | left  |LP iter|LP it/n|mem/heur|mdpt |vars |cons |rows |cuts |sepa|confs|strbr|  dualbound   | primalbound  |  gap   | compl. 
r 1.2s|     1 |     0 |  9326 |     - |simplero|   0 |2924 | 170 | 170 |   0 |  0 |   0 |   0 |      --      | 1.653938e+01 |    Inf | unknown
r 1.2s|     1 |     0 |  9456 |     - |simplero|   0 |2941 | 170 | 170 |   0 |  0 |   0 |   0 |      --      | 1.489213e+01 |    Inf | unknown
r 1.2s|     1 |     0 |  9518 |     - |simplero|   0 |2941 | 170 | 170 |   0 |  0 |   0 |   0 |      --      | 1.457354e+01 |    Inf | unknown
r 1.2s|     1 |     0 |  9543 |     - |simplero|   0 |2941 | 170 | 170 |   0 |  0 |   0 |   0 |      --      | 1.452263e+01 |    Inf | unknown
  1.2s|     1 |     0 |  9547 |     - |    14M |   0 |2941 | 170 | 170 |   0 |  0 |   0 |   0 |      --      | 1.452263e+01 |    Inf | unknown
r 1.2s|     1 |     0 |  9547 |     - |simplero|   0 |2941 | 170 | 170 |   0 |  0 |   0 |   0 |      --      | 1.452190e+01 |    Inf | unknown
r 1.2s|     1 |     0 |  9679 |     - |simplero|   0 |2958 | 170 | 170 |   0 |  0 |   0 |   0 |      --      | 1.301831e+01 |    Inf | unknown
r 1.2s|     1 |     0 |  9732 |     - |simplero|   0 |2958 | 170 | 170 |   0 |  0 |   0 |   0 |      --      | 1.291053e+01 |    Inf | unknown
r 1.2s|     1 |     0 |  9752 |     - |simplero|   0 |2958 | 170 | 170 |   0 |  0 |   0 |   0 |      --      | 1.288829e+01 |    Inf | unknown
r 1.2s|     1 |     0 |  9919 |     - |simplero|   0 |2975 | 170 | 170 |   0 |  0 |   0 |   0 |      --      | 1.069759e+01 |    Inf | unknown
r 1.2s|     1 |     0 |  9955 |     - |simplero|   0 |2975 | 170 | 170 |   0 |  0 |   0 |   0 |      --      | 1.056034e+01 |    Inf | unknown
r 1.3s|     1 |     0 |  9979 |     - |simplero|   0 |2975 | 170 | 170 |   0 |  0 |   0 |   0 |      --      | 1.053148e+01 |    Inf | unknown
r 1.3s|     1 |     0 |  9985 |     - |simplero|   0 |2975 | 170 | 170 |   0 |  0 |   0 |   0 |      --      | 1.052930e+01 |    Inf | unknown
r 1.3s|     1 |     0 | 10119 |     - |simplero|   0 |2992 | 170 | 170 |   0 |  0 |   0 |   0 |      --      | 9.318381e+00 |    Inf | unknown
r 1.3s|     1 |     0 | 10134 |     - |simplero|   0 |2992 | 170 | 170 |   0 |  0 |   0 |   0 |      --      | 9.301488e+00 |    Inf | unknown
 time | node  | left  |LP iter|LP it/n|mem/heur|mdpt |vars |cons |rows |cuts |sepa|confs|strbr|  dualbound   | primalbound  |  gap   | compl. 
r 1.3s|     1 |     0 | 10135 |     - |simplero|   0 |2992 | 170 | 170 |   0 |  0 |   0 |   0 |      --      | 9.301467e+00 |    Inf | unknown
r 1.3s|     1 |     0 | 10136 |     - |simplero|   0 |2992 | 170 | 170 |   0 |  0 |   0 |   0 |      --      | 9.301455e+00 |    Inf | unknown
r 1.3s|     1 |     0 | 10278 |     - |simplero|   0 |3009 | 170 | 170 |   0 |  0 |   0 |   0 |      --      | 7.893688e+00 |    Inf | unknown
r 1.3s|     1 |     0 | 10301 |     - |simplero|   0 |3009 | 170 | 170 |   0 |  0 |   0 |   0 |      --      | 7.842019e+00 |    Inf | unknown
r 1.3s|     1 |     0 | 10302 |     - |simplero|   0 |3009 | 170 | 170 |   0 |  0 |   0 |   0 |      --      | 7.841918e+00 |    Inf | unknown
r 1.3s|     1 |     0 | 10414 |     - |simplero|   0 |3026 | 170 | 170 |   0 |  0 |   0 |   0 |      --      | 7.144396e+00 |    Inf | unknown
r 1.3s|     1 |     0 | 10495 |     - |simplero|   0 |3026 | 170 | 170 |   0 |  0 |   0 |   0 |      --      | 6.688256e+00 |    Inf | unknown
r 1.3s|     1 |     0 | 10516 |     - |simplero|   0 |3026 | 170 | 170 |   0 |  0 |   0 |   0 |      --      | 6.647468e+00 |    Inf | unknown
r 1.3s|     1 |     0 | 10528 |     - |simplero|   0 |3026 | 170 | 170 |   0 |  0 |   0 |   0 |      --      | 6.639490e+00 |    Inf | unknown
r 1.4s|     1 |     0 | 10534 |     - |simplero|   0 |3026 | 170 | 170 |   0 |  0 |   0 |   0 |      --      | 6.636364e+00 |    Inf | unknown
r 1.4s|     1 |     0 | 10695 |     - |simplero|   0 |3043 | 170 | 170 |   0 |  0 |   0 |   0 |      --      | 5.155412e+00 |    Inf | unknown
r 1.4s|     1 |     0 | 10706 |     - |simplero|   0 |3043 | 170 | 170 |   0 |  0 |   0 |   0 |      --      | 5.137620e+00 |    Inf | unknown
r 1.4s|     1 |     0 | 10715 |     - |simplero|   0 |3043 | 170 | 170 |   0 |  0 |   0 |   0 |      --      | 5.133287e+00 |    Inf | unknown
r 1.4s|     1 |     0 | 10829 |     - |simplero|   0 |3060 | 170 | 170 |   0 |  0 |   0 |   0 |      --      | 4.414466e+00 |    Inf | unknown
r 1.4s|     1 |     0 | 10846 |     - |simplero|   0 |3060 | 170 | 170 |   0 |  0 |   0 |   0 |      --      | 4.387959e+00 |    Inf | unknown
 time | node  | left  |LP iter|LP it/n|mem/heur|mdpt |vars |cons |rows |cuts |sepa|confs|strbr|  dualbound   | primalbound  |  gap   | compl. 
r 1.4s|     1 |     0 | 10849 |     - |simplero|   0 |3060 | 170 | 170 |   0 |  0 |   0 |   0 |      --      | 4.387068e+00 |    Inf | unknown
r 1.4s|     1 |     0 | 10961 |     - |simplero|   0 |3077 | 170 | 170 |   0 |  0 |   0 |   0 |      --      | 3.625786e+00 |    Inf | unknown
r 1.4s|     1 |     0 | 11001 |     - |simplero|   0 |3077 | 170 | 170 |   0 |  0 |   0 |   0 |      --      | 3.530043e+00 |    Inf | unknown
r 1.4s|     1 |     0 | 11007 |     - |simplero|   0 |3077 | 170 | 170 |   0 |  0 |   0 |   0 |      --      | 3.522848e+00 |    Inf | unknown
r 1.4s|     1 |     0 | 11078 |     - |simplero|   0 |3094 | 170 | 170 |   0 |  0 |   0 |   0 |      --      | 2.955386e+00 |    Inf | unknown
r 1.4s|     1 |     0 | 11113 |     - |simplero|   0 |3094 | 170 | 170 |   0 |  0 |   0 |   0 |      --      | 2.906148e+00 |    Inf | unknown
r 1.5s|     1 |     0 | 11248 |     - |simplero|   0 |3111 | 170 | 170 |   0 |  0 |   0 |   0 |      --      | 2.344161e+00 |    Inf | unknown
r 1.5s|     1 |     0 | 11268 |     - |simplero|   0 |3111 | 170 | 170 |   0 |  0 |   0 |   0 |      --      | 2.329976e+00 |    Inf | unknown
r 1.5s|     1 |     0 | 11370 |     - |simplero|   0 |3128 | 170 | 170 |   0 |  0 |   0 |   0 |      --      | 1.802592e+00 |    Inf | unknown
r 1.5s|     1 |     0 | 11428 |     - |simplero|   0 |3128 | 170 | 170 |   0 |  0 |   0 |   0 |      --      | 1.612134e+00 |    Inf | unknown
r 1.5s|     1 |     0 | 11434 |     - |simplero|   0 |3128 | 170 | 170 |   0 |  0 |   0 |   0 |      --      | 1.610325e+00 |    Inf | unknown
r 1.5s|     1 |     0 | 11521 |     - |simplero|   0 |3145 | 170 | 170 |   0 |  0 |   0 |   0 |      --      | 1.110129e+00 |    Inf | unknown
r 1.5s|     1 |     0 | 11526 |     - |simplero|   0 |3145 | 170 | 170 |   0 |  0 |   0 |   0 |      --      | 1.108358e+00 |    Inf | unknown
r 1.5s|     1 |     0 | 11651 |     - |simplero|   0 |3162 | 170 | 170 |   0 |  0 |   0 |   0 |      --      | 6.595784e-01 |    Inf | unknown
r 1.5s|     1 |     0 | 11658 |     - |simplero|   0 |3162 | 170 | 170 |   0 |  0 |   0 |   0 |      --      | 6.585626e-01 |    Inf | unknown
 time | node  | left  |LP iter|LP it/n|mem/heur|mdpt |vars |cons |rows |cuts |sepa|confs|strbr|  dualbound   | primalbound  |  gap   | compl. 
r 1.5s|     1 |     0 | 11661 |     - |simplero|   0 |3162 | 170 | 170 |   0 |  0 |   0 |   0 |      --      | 6.579900e-01 |    Inf | unknown
r 1.5s|     1 |     0 | 11770 |     - |simplero|   0 |3179 | 170 | 170 |   0 |  0 |   0 |   0 |      --      | 2.483408e-01 |    Inf | unknown
r 1.6s|     1 |     0 | 11808 |     - |simplero|   0 |3179 | 170 | 170 |   0 |  0 |   0 |   0 |      --      | 1.918276e-01 |    Inf | unknown
r 1.6s|     1 |     0 | 11823 |     - |simplero|   0 |3179 | 170 | 170 |   0 |  0 |   0 |   0 |      --      | 1.867610e-01 |    Inf | unknown
r 1.6s|     1 |     0 | 11872 |     - |simplero|   0 |3196 | 170 | 170 |   0 |  0 |   0 |   0 |      --      | 0.000000e+00 |    Inf | unknown
  1.6s|     1 |     0 | 11872 |     - |    17M |   0 |3196 | 170 | 170 |   0 |  0 |   0 |   0 | 0.000000e+00 | 0.000000e+00 |   0.00%| unknown
  1.6s|     1 |     0 | 11872 |     - |    17M |   0 |3196 | 170 | 170 |   0 |  0 |   0 |   0 | 0.000000e+00 | 0.000000e+00 |   0.00%| unknown

SCIP Status        : problem is solved [optimal solution found]
Solving Time (sec) : 1.57
Solving Nodes      : 1
Primal Bound       : +0.00000000000000e+00 (77 solutions)
Dual Bound         : +0.00000000000000e+00
Gap                : 0.00 %

written transformed problem to file <results_rootrelaxation/bin018_060_048.srr.lp>
written transformed problem to file <results_rootrelaxation/bin018_060_048.srr.cip>

written solution information to file <results_rootrelaxation/bin018_060_048.srr.sol>



